nK = 1907;
nT = 6;
nI = 14;
L = 29;
TT = 411;
np = 1;
nc = 3;
b = [54, 26, 51, 34, 53, 64, 48, 63, 34, 64, 55, 21, 58, 61];
d = [130, 93, 134, 111, 126, 98, 119, 146, 98, 130, 126, 54, 115, 117];
m = [1.4, 1.6, 1, 1.9, 2.5, 1.6, 2.5, 1.7, 2.1, 2, 1.3, 1.2, 2.1, 1.8];
pt = [0.35, 0.3, 0.35, 0.34, 0.21, 0.25];
st = [15.75, 12.3, 18.55, 14.96, 10.5, 10.5];
arc = {<1, 0, 1, 1, 0, 0, 0, [1, 1, 1, 1, 1, 1]>, <2, 1, 2, 1, 0, 0, 0, [1, 1, 1, 1, 1, 1]>, <3, 2, 3, 1, 0, 0, 0, [1, 1, 1, 1, 1, 1]>, <4, 3, 4, 1, 0, 0, 0, [1, 1, 1, 1, 1, 1]>, <5, 4, 5, 1, 0, 0, 0, [1, 1, 1, 1, 1, 1]>, <6, 5, 6, 1, 0, 0, 0, [1, 1, 1, 1, 1, 1]>, <7, 6, 7, 1, 0, 0, 0, [1, 1, 1, 1, 1, 1]>, <8, 7, 8, 1, 0, 0, 0, [1, 1, 1, 1, 1, 1]>, <9, 8, 9, 1, 0, 0, 0, [1, 1, 1, 1, 1, 1]>, <10, 9, 10, 1, 0, 0, 0, [1, 1, 1, 1, 1, 1]>, <11, 10, 11, 1, 0, 0, 0, [1, 1, 1, 1, 1, 1]>, <12, 11, 12, 1, 0, 0, 0, [1, 1, 1, 1, 1, 1]>, <13, 12, 13, 1, 0, 0, 0, [1, 1, 1, 1, 1, 1]>, <14, 13, 14, 1, 0, 0, 0, [1, 1, 1, 1, 1, 1]>, <15, 14, 15, 1, 0, 0, 0, [1, 1, 1, 1, 1, 1]>, <16, 15, 16, 1, 0, 0, 0, [1, 1, 1, 1, 1, 1]>, <17, 16, 17, 1, 0, 0, 0, [1, 1, 1, 1, 1, 1]>, <18, 17, 18, 1, 0, 0, 0, [1, 1, 1, 1, 1, 1]>, <19, 18, 19, 1, 0, 0, 0, [1, 1, 1, 1, 1, 1]>, <20, 19, 20, 1, 0, 0, 0, [1, 1, 1, 1, 1, 1]>, <21, 20, 21, 1, 0, 0, 0, [1, 1, 1, 1, 1, 1]>, <22, 21, 22, 1, 0, 0, 0, [1, 1, 1, 1, 1, 1]>, <23, 22, 23, 1, 0, 0, 0, [1, 1, 1, 1, 1, 1]>, <24, 23, 24, 1, 0, 0, 0, [1, 1, 1, 1, 1, 1]>, <25, 24, 25, 1, 0, 0, 0, [1, 1, 1, 1, 1, 1]>, <26, 25, 26, 1, 0, 0, 0, [1, 1, 1, 1, 1, 1]>, <27, 26, 27, 1, 0, 0, 0, [1, 1, 1, 1, 1, 1]>, <28, 27, 28, 1, 0, 0, 0, [1, 1, 1, 1, 1, 1]>, <29, 28, 29, 1, 0, 0, 0, [1, 1, 1, 1, 1, 1]>, <30, 0, 14, 14, 1, 0, 0, [1, 1, 1, 1, 0, 0]>, <31, 1, 15, 14, 1, 0, 0, [1, 1, 1, 1, 0, 0]>, <32, 2, 16, 14, 1, 0, 0, [1, 1, 1, 1, 0, 0]>, <33, 3, 17, 14, 1, 0, 0, [1, 1, 1, 1, 0, 0]>, <34, 4, 18, 14, 1, 0, 0, [1, 1, 1, 1, 0, 0]>, <35, 5, 19, 14, 1, 0, 0, [1, 1, 1, 1, 0, 0]>, <36, 6, 20, 14, 1, 0, 0, [1, 1, 1, 1, 0, 0]>, <37, 7, 21, 14, 1, 0, 0, [1, 1, 1, 1, 0, 0]>, <38, 8, 22, 14, 1, 0, 0, [1, 1, 1, 1, 0, 0]>, <39, 9, 23, 14, 1, 0, 0, [1, 1, 1, 1, 0, 0]>, <40, 10, 24, 14, 1, 0, 0, [1, 1, 1, 1, 0, 0]>, <41, 11, 25, 14, 1, 0, 0, [1, 1, 1, 1, 0, 0]>, <42, 12, 26, 14, 1, 0, 0, [1, 1, 1, 1, 0, 0]>, <43, 13, 27, 14, 1, 0, 0, [1, 1, 1, 1, 0, 0]>, <44, 14, 28, 14, 1, 0, 0, [1, 1, 1, 1, 0, 0]>, <45, 15, 29, 14, 1, 0, 0, [1, 1, 1, 1, 0, 0]>, <46, 0, 16, 16, 2, 1, 0, [0, 0, 1, 1, 1, 1]>, <47, 1, 17, 16, 2, 1, 0, [0, 0, 1, 1, 1, 1]>, <48, 2, 18, 16, 2, 1, 0, [0, 0, 1, 1, 1, 1]>, <49, 3, 19, 16, 2, 1, 0, [0, 0, 1, 1, 1, 1]>, <50, 4, 20, 16, 2, 1, 0, [0, 0, 1, 1, 1, 1]>, <51, 5, 21, 16, 2, 1, 0, [0, 0, 1, 1, 1, 1]>, <52, 6, 22, 16, 2, 1, 0, [0, 0, 1, 1, 1, 1]>, <53, 7, 23, 16, 2, 1, 0, [0, 0, 1, 1, 1, 1]>, <54, 8, 24, 16, 2, 1, 0, [0, 0, 1, 1, 1, 1]>, <55, 9, 25, 16, 2, 1, 0, [0, 0, 1, 1, 1, 1]>, <56, 10, 26, 16, 2, 1, 0, [0, 0, 1, 1, 1, 1]>, <57, 11, 27, 16, 2, 1, 0, [0, 0, 1, 1, 1, 1]>, <58, 12, 28, 16, 2, 1, 0, [0, 0, 1, 1, 1, 1]>, <59, 13, 29, 16, 2, 1, 0, [0, 0, 1, 1, 1, 1]>, <60, 0, 16, 16, 3, 0, 0, [1, 1, 1, 1, 0, 0]>, <61, 1, 17, 16, 3, 0, 0, [1, 1, 1, 1, 0, 0]>, <62, 2, 18, 16, 3, 0, 0, [1, 1, 1, 1, 0, 0]>, <63, 3, 19, 16, 3, 0, 0, [1, 1, 1, 1, 0, 0]>, <64, 4, 20, 16, 3, 0, 0, [1, 1, 1, 1, 0, 0]>, <65, 5, 21, 16, 3, 0, 0, [1, 1, 1, 1, 0, 0]>, <66, 6, 22, 16, 3, 0, 0, [1, 1, 1, 1, 0, 0]>, <67, 7, 23, 16, 3, 0, 0, [1, 1, 1, 1, 0, 0]>, <68, 8, 24, 16, 3, 0, 0, [1, 1, 1, 1, 0, 0]>, <69, 9, 25, 16, 3, 0, 0, [1, 1, 1, 1, 0, 0]>, <70, 10, 26, 16, 3, 0, 0, [1, 1, 1, 1, 0, 0]>, <71, 11, 27, 16, 3, 0, 0, [1, 1, 1, 1, 0, 0]>, <72, 12, 28, 16, 3, 0, 0, [1, 1, 1, 1, 0, 0]>, <73, 13, 29, 16, 3, 0, 0, [1, 1, 1, 1, 0, 0]>, <74, 0, 16, 16, 4, 0, 1, [1, 1, 1, 1, 0, 0]>, <75, 1, 17, 16, 4, 0, 1, [1, 1, 1, 1, 0, 0]>, <76, 2, 18, 16, 4, 0, 1, [1, 1, 1, 1, 0, 0]>, <77, 3, 19, 16, 4, 0, 1, [1, 1, 1, 1, 0, 0]>, <78, 4, 20, 16, 4, 0, 1, [1, 1, 1, 1, 0, 0]>, <79, 5, 21, 16, 4, 0, 1, [1, 1, 1, 1, 0, 0]>, <80, 6, 22, 16, 4, 0, 1, [1, 1, 1, 1, 0, 0]>, <81, 7, 23, 16, 4, 0, 1, [1, 1, 1, 1, 0, 0]>, <82, 8, 24, 16, 4, 0, 1, [1, 1, 1, 1, 0, 0]>, <83, 9, 25, 16, 4, 0, 1, [1, 1, 1, 1, 0, 0]>, <84, 10, 26, 16, 4, 0, 1, [1, 1, 1, 1, 0, 0]>, <85, 11, 27, 16, 4, 0, 1, [1, 1, 1, 1, 0, 0]>, <86, 12, 28, 16, 4, 0, 1, [1, 1, 1, 1, 0, 0]>, <87, 13, 29, 16, 4, 0, 1, [1, 1, 1, 1, 0, 0]>, <88, 0, 16, 16, 5, 0, 1, [1, 1, 1, 1, 0, 0]>, <89, 1, 17, 16, 5, 0, 1, [1, 1, 1, 1, 0, 0]>, <90, 2, 18, 16, 5, 0, 1, [1, 1, 1, 1, 0, 0]>, <91, 3, 19, 16, 5, 0, 1, [1, 1, 1, 1, 0, 0]>, <92, 4, 20, 16, 5, 0, 1, [1, 1, 1, 1, 0, 0]>, <93, 5, 21, 16, 5, 0, 1, [1, 1, 1, 1, 0, 0]>, <94, 6, 22, 16, 5, 0, 1, [1, 1, 1, 1, 0, 0]>, <95, 7, 23, 16, 5, 0, 1, [1, 1, 1, 1, 0, 0]>, <96, 8, 24, 16, 5, 0, 1, [1, 1, 1, 1, 0, 0]>, <97, 9, 25, 16, 5, 0, 1, [1, 1, 1, 1, 0, 0]>, <98, 10, 26, 16, 5, 0, 1, [1, 1, 1, 1, 0, 0]>, <99, 11, 27, 16, 5, 0, 1, [1, 1, 1, 1, 0, 0]>, <100, 12, 28, 16, 5, 0, 1, [1, 1, 1, 1, 0, 0]>, <101, 13, 29, 16, 5, 0, 1, [1, 1, 1, 1, 0, 0]>, <102, 0, 14, 14, 6, 0, 0, [1, 0, 0, 1, 1, 1]>, <103, 1, 15, 14, 6, 0, 0, [1, 0, 0, 1, 1, 1]>, <104, 2, 16, 14, 6, 0, 0, [1, 0, 0, 1, 1, 1]>, <105, 3, 17, 14, 6, 0, 0, [1, 0, 0, 1, 1, 1]>, <106, 4, 18, 14, 6, 0, 0, [1, 0, 0, 1, 1, 1]>, <107, 5, 19, 14, 6, 0, 0, [1, 0, 0, 1, 1, 1]>, <108, 6, 20, 14, 6, 0, 0, [1, 0, 0, 1, 1, 1]>, <109, 7, 21, 14, 6, 0, 0, [1, 0, 0, 1, 1, 1]>, <110, 8, 22, 14, 6, 0, 0, [1, 0, 0, 1, 1, 1]>, <111, 9, 23, 14, 6, 0, 0, [1, 0, 0, 1, 1, 1]>, <112, 10, 24, 14, 6, 0, 0, [1, 0, 0, 1, 1, 1]>, <113, 11, 25, 14, 6, 0, 0, [1, 0, 0, 1, 1, 1]>, <114, 12, 26, 14, 6, 0, 0, [1, 0, 0, 1, 1, 1]>, <115, 13, 27, 14, 6, 0, 0, [1, 0, 0, 1, 1, 1]>, <116, 14, 28, 14, 6, 0, 0, [1, 0, 0, 1, 1, 1]>, <117, 15, 29, 14, 6, 0, 0, [1, 0, 0, 1, 1, 1]>, <118, 0, 16, 16, 7, 0, 0, [1, 0, 0, 1, 1, 1]>, <119, 1, 17, 16, 7, 0, 0, [1, 0, 0, 1, 1, 1]>, <120, 2, 18, 16, 7, 0, 0, [1, 0, 0, 1, 1, 1]>, <121, 3, 19, 16, 7, 0, 0, [1, 0, 0, 1, 1, 1]>, <122, 4, 20, 16, 7, 0, 0, [1, 0, 0, 1, 1, 1]>, <123, 5, 21, 16, 7, 0, 0, [1, 0, 0, 1, 1, 1]>, <124, 6, 22, 16, 7, 0, 0, [1, 0, 0, 1, 1, 1]>, <125, 7, 23, 16, 7, 0, 0, [1, 0, 0, 1, 1, 1]>, <126, 8, 24, 16, 7, 0, 0, [1, 0, 0, 1, 1, 1]>, <127, 9, 25, 16, 7, 0, 0, [1, 0, 0, 1, 1, 1]>, <128, 10, 26, 16, 7, 0, 0, [1, 0, 0, 1, 1, 1]>, <129, 11, 27, 16, 7, 0, 0, [1, 0, 0, 1, 1, 1]>, <130, 12, 28, 16, 7, 0, 0, [1, 0, 0, 1, 1, 1]>, <131, 13, 29, 16, 7, 0, 0, [1, 0, 0, 1, 1, 1]>, <132, 0, 18, 18, 8, 0, 0, [1, 1, 1, 0, 0, 1]>, <133, 1, 19, 18, 8, 0, 0, [1, 1, 1, 0, 0, 1]>, <134, 2, 20, 18, 8, 0, 0, [1, 1, 1, 0, 0, 1]>, <135, 3, 21, 18, 8, 0, 0, [1, 1, 1, 0, 0, 1]>, <136, 4, 22, 18, 8, 0, 0, [1, 1, 1, 0, 0, 1]>, <137, 5, 23, 18, 8, 0, 0, [1, 1, 1, 0, 0, 1]>, <138, 6, 24, 18, 8, 0, 0, [1, 1, 1, 0, 0, 1]>, <139, 7, 25, 18, 8, 0, 0, [1, 1, 1, 0, 0, 1]>, <140, 8, 26, 18, 8, 0, 0, [1, 1, 1, 0, 0, 1]>, <141, 9, 27, 18, 8, 0, 0, [1, 1, 1, 0, 0, 1]>, <142, 10, 28, 18, 8, 0, 0, [1, 1, 1, 0, 0, 1]>, <143, 11, 29, 18, 8, 0, 0, [1, 1, 1, 0, 0, 1]>, <144, 0, 17, 17, 9, 1, 0, [0, 1, 1, 1, 1, 0]>, <145, 1, 18, 17, 9, 1, 0, [0, 1, 1, 1, 1, 0]>, <146, 2, 19, 17, 9, 1, 0, [0, 1, 1, 1, 1, 0]>, <147, 3, 20, 17, 9, 1, 0, [0, 1, 1, 1, 1, 0]>, <148, 4, 21, 17, 9, 1, 0, [0, 1, 1, 1, 1, 0]>, <149, 5, 22, 17, 9, 1, 0, [0, 1, 1, 1, 1, 0]>, <150, 6, 23, 17, 9, 1, 0, [0, 1, 1, 1, 1, 0]>, <151, 7, 24, 17, 9, 1, 0, [0, 1, 1, 1, 1, 0]>, <152, 8, 25, 17, 9, 1, 0, [0, 1, 1, 1, 1, 0]>, <153, 9, 26, 17, 9, 1, 0, [0, 1, 1, 1, 1, 0]>, <154, 10, 27, 17, 9, 1, 0, [0, 1, 1, 1, 1, 0]>, <155, 11, 28, 17, 9, 1, 0, [0, 1, 1, 1, 1, 0]>, <156, 12, 29, 17, 9, 1, 0, [0, 1, 1, 1, 1, 0]>, <157, 0, 18, 18, 10, 0, 1, [0, 1, 1, 1, 1, 0]>, <158, 1, 19, 18, 10, 0, 1, [0, 1, 1, 1, 1, 0]>, <159, 2, 20, 18, 10, 0, 1, [0, 1, 1, 1, 1, 0]>, <160, 3, 21, 18, 10, 0, 1, [0, 1, 1, 1, 1, 0]>, <161, 4, 22, 18, 10, 0, 1, [0, 1, 1, 1, 1, 0]>, <162, 5, 23, 18, 10, 0, 1, [0, 1, 1, 1, 1, 0]>, <163, 6, 24, 18, 10, 0, 1, [0, 1, 1, 1, 1, 0]>, <164, 7, 25, 18, 10, 0, 1, [0, 1, 1, 1, 1, 0]>, <165, 8, 26, 18, 10, 0, 1, [0, 1, 1, 1, 1, 0]>, <166, 9, 27, 18, 10, 0, 1, [0, 1, 1, 1, 1, 0]>, <167, 10, 28, 18, 10, 0, 1, [0, 1, 1, 1, 1, 0]>, <168, 11, 29, 18, 10, 0, 1, [0, 1, 1, 1, 1, 0]>, <169, 0, 18, 18, 11, 0, 1, [0, 0, 1, 1, 1, 1]>, <170, 1, 19, 18, 11, 0, 1, [0, 0, 1, 1, 1, 1]>, <171, 2, 20, 18, 11, 0, 1, [0, 0, 1, 1, 1, 1]>, <172, 3, 21, 18, 11, 0, 1, [0, 0, 1, 1, 1, 1]>, <173, 4, 22, 18, 11, 0, 1, [0, 0, 1, 1, 1, 1]>, <174, 5, 23, 18, 11, 0, 1, [0, 0, 1, 1, 1, 1]>, <175, 6, 24, 18, 11, 0, 1, [0, 0, 1, 1, 1, 1]>, <176, 7, 25, 18, 11, 0, 1, [0, 0, 1, 1, 1, 1]>, <177, 8, 26, 18, 11, 0, 1, [0, 0, 1, 1, 1, 1]>, <178, 9, 27, 18, 11, 0, 1, [0, 0, 1, 1, 1, 1]>, <179, 10, 28, 18, 11, 0, 1, [0, 0, 1, 1, 1, 1]>, <180, 11, 29, 18, 11, 0, 1, [0, 0, 1, 1, 1, 1]>, <181, 0, 14, 14, 12, 0, 0, [1, 1, 1, 0, 0, 1]>, <182, 1, 15, 14, 12, 0, 0, [1, 1, 1, 0, 0, 1]>, <183, 2, 16, 14, 12, 0, 0, [1, 1, 1, 0, 0, 1]>, <184, 3, 17, 14, 12, 0, 0, [1, 1, 1, 0, 0, 1]>, <185, 4, 18, 14, 12, 0, 0, [1, 1, 1, 0, 0, 1]>, <186, 5, 19, 14, 12, 0, 0, [1, 1, 1, 0, 0, 1]>, <187, 6, 20, 14, 12, 0, 0, [1, 1, 1, 0, 0, 1]>, <188, 7, 21, 14, 12, 0, 0, [1, 1, 1, 0, 0, 1]>, <189, 8, 22, 14, 12, 0, 0, [1, 1, 1, 0, 0, 1]>, <190, 9, 23, 14, 12, 0, 0, [1, 1, 1, 0, 0, 1]>, <191, 10, 24, 14, 12, 0, 0, [1, 1, 1, 0, 0, 1]>, <192, 11, 25, 14, 12, 0, 0, [1, 1, 1, 0, 0, 1]>, <193, 12, 26, 14, 12, 0, 0, [1, 1, 1, 0, 0, 1]>, <194, 13, 27, 14, 12, 0, 0, [1, 1, 1, 0, 0, 1]>, <195, 14, 28, 14, 12, 0, 0, [1, 1, 1, 0, 0, 1]>, <196, 15, 29, 14, 12, 0, 0, [1, 1, 1, 0, 0, 1]>, <197, 0, 17, 17, 13, 0, 0, [1, 1, 1, 1, 0, 0]>, <198, 1, 18, 17, 13, 0, 0, [1, 1, 1, 1, 0, 0]>, <199, 2, 19, 17, 13, 0, 0, [1, 1, 1, 1, 0, 0]>, <200, 3, 20, 17, 13, 0, 0, [1, 1, 1, 1, 0, 0]>, <201, 4, 21, 17, 13, 0, 0, [1, 1, 1, 1, 0, 0]>, <202, 5, 22, 17, 13, 0, 0, [1, 1, 1, 1, 0, 0]>, <203, 6, 23, 17, 13, 0, 0, [1, 1, 1, 1, 0, 0]>, <204, 7, 24, 17, 13, 0, 0, [1, 1, 1, 1, 0, 0]>, <205, 8, 25, 17, 13, 0, 0, [1, 1, 1, 1, 0, 0]>, <206, 9, 26, 17, 13, 0, 0, [1, 1, 1, 1, 0, 0]>, <207, 10, 27, 17, 13, 0, 0, [1, 1, 1, 1, 0, 0]>, <208, 11, 28, 17, 13, 0, 0, [1, 1, 1, 1, 0, 0]>, <209, 12, 29, 17, 13, 0, 0, [1, 1, 1, 1, 0, 0]>, <210, 0, 14, 14, 14, 0, 0, [1, 1, 1, 1, 0, 0]>, <211, 1, 15, 14, 14, 0, 0, [1, 1, 1, 1, 0, 0]>, <212, 2, 16, 14, 14, 0, 0, [1, 1, 1, 1, 0, 0]>, <213, 3, 17, 14, 14, 0, 0, [1, 1, 1, 1, 0, 0]>, <214, 4, 18, 14, 14, 0, 0, [1, 1, 1, 1, 0, 0]>, <215, 5, 19, 14, 14, 0, 0, [1, 1, 1, 1, 0, 0]>, <216, 6, 20, 14, 14, 0, 0, [1, 1, 1, 1, 0, 0]>, <217, 7, 21, 14, 14, 0, 0, [1, 1, 1, 1, 0, 0]>, <218, 8, 22, 14, 14, 0, 0, [1, 1, 1, 1, 0, 0]>, <219, 9, 23, 14, 14, 0, 0, [1, 1, 1, 1, 0, 0]>, <220, 10, 24, 14, 14, 0, 0, [1, 1, 1, 1, 0, 0]>, <221, 11, 25, 14, 14, 0, 0, [1, 1, 1, 1, 0, 0]>, <222, 12, 26, 14, 14, 0, 0, [1, 1, 1, 1, 0, 0]>, <223, 13, 27, 14, 14, 0, 0, [1, 1, 1, 1, 0, 0]>, <224, 14, 28, 14, 14, 0, 0, [1, 1, 1, 1, 0, 0]>, <225, 15, 29, 14, 14, 0, 0, [1, 1, 1, 1, 0, 0]>};
